
Gurobi 13.0.2 (win64) logging started Fri Jul 24 05:50:56 2026

Set parameter LogFile to value "E:\codes\ExactEBRP\results\gf_c0_mechanism_transfer_c5_round30\runs\stage1__V12_M1__c5_candidate__300s\external\native_logs\L2.0.0.1.0.0_terminal_mip.gurobi.log"
Gurobi Optimizer version 13.0.2 build v13.0.2rc1 (win64 - Windows 10.0 (19045.2))

CPU model: 12th Gen Intel(R) Core(TM) i7-12700KF, instruction set [SSE2|AVX|AVX2]
Thread count: 12 physical cores, 20 logical processors, using up to 1 threads

Non-default parameters:
TimeLimit  273.8733163
MIPGap  0
MIPGapAbs  0
LogToConsole  0
Threads  1

Optimize a model with 6225 rows, 648 columns and 59365 nonzeros (Min)
Model fingerprint: 0xb5f87aff
Model has 13 linear objective coefficients
Variable types: 347 continuous, 301 integer (253 binary)
Coefficient statistics:
  Matrix range     [2e-03, 1e+05]
  Objective range  [2e-03, 1e+00]
  Bounds range     [1e-01, 8e+01]
  RHS range        [3e-02, 1e+06]

Presolve removed 742 rows and 27 columns
Presolve time: 0.13s
Presolved: 5483 rows, 621 columns, 58748 nonzeros
Variable types: 321 continuous, 300 integer (252 binary)

Root relaxation: objective 3.218097e-01, 791 iterations, 0.06 seconds (0.19 work units)

    Nodes    |    Current Node    |     Objective Bounds      |     Work
 Expl Unexpl |  Obj  Depth IntInf | Incumbent    BestBd   Gap | It/Node Time

     0     0    0.32181    0  113          -    0.32181      -     -    0s
     0     0    0.33071    0   74          -    0.33071      -     -    0s
     0     0    0.33282    0   70          -    0.33282      -     -    0s
     0     0 infeasible    0               - infeasible      -     -    0s

Cutting planes:
  Learned: 3
  Gomory: 4
  Cover: 10
  Implied bound: 35
  Clique: 19
  MIR: 69
  StrongCG: 7
  Flow cover: 16
  GUB cover: 1
  Zero half: 2
  Network: 1
  RLT: 11
  Relax-and-lift: 6
  BQP: 6

Explored 1 nodes (1432 simplex iterations) in 0.77 seconds (1.06 work units)
Thread count was 1 (of 20 available processors)

Solution count 0

Model is infeasible
Best objective -, best bound -, gap -

User-callback calls 842, time in user-callback 0.00 sec
